50
0 1 0.65 0.26
0 2 0.72 0.2
0 3 0.58 0.24
0 4 0.73 0.25
0 5 0.6 0.24
0 6 0.54 0.27
0 7 0.71 0.23
0 8 0.63 0.3
0 9 0.63 0.17
0 10 0.37 0.1
0 11 0.46 0.14
0 12 0.7 0.25
0 13 0.5 0.2
0 14 0.42 0.09
0 15 0.58 0.28
0 16 0.7 0.22
0 17 0.44 0.27
0 18 0.64 0.31
0 19 0.71 0.3
0 20 0.66 0.3
0 21 0.44 0.16
0 22 0.74 0.22
0 23 0.32 0.12
0 24 0.72 0.22
0 25 0.52 0.19
0 26 0.58 0.24
0 27 0.54 0.24
0 28 0.58 0.2
0 29 0.51 0.24
0 30 0.73 0.28
0 31 0.67 0.22
0 32 0.76 0.21
0 33 0.54 0.2
0 34 0.56 0.08
0 35 0.6 0.13
0 36 0.78 0.18
0 37 0.6 0.12
0 38 0.72 0.14
0 39 0.32 0.2
0 40 0.78 0.28
0 41 0.48 0.27
0 42 0.71 0.23
0 43 0.78 0.26
0 44 0.52 0.2
0 45 0.55 0.29
0 46 0.42 0.05
0 47 0.66 0.29
0 48 0.48 0.26
0 49 0.64 0.14
1 2 0.63 0.24
1 3 0.52 0.26
1 4 0.56 0.26
1 5 0.72 0.14
1 6 0.58 0.26
1 7 0.16 0.14
1 8 0.46 0.29
1 9 0.48 0.28
1 10 0.32 0.16
1 11 0.78 0.24
1 12 0.73 0.25
1 13 0.65 0.12
1 14 0.4 0.23
1 15 0.66 0.25
1 16 0.58 0.22
1 17 0.48 0.26
1 18 0.51 0.23
1 19 0.34 0.24
1 20 0.73 0.22
1 21 0.48 0.16
1 22 0.62 0.22
1 23 0.55 0.28
1 24 0.72 0.19
1 25 0.65 0.26
1 26 0.7 0.24
1 27 0.48 0.23
1 28 0.68 0.2
1 29 0.6 0.2
1 30 0.67 0.3
1 31 0.66 0.26
1 32 0.64 0.31
1 33 0.5 0.12
1 34 0.36 0.3
1 35 0.75 0.24
1 36 0.41 0.18
1 37 0.71 0.22
1 38 0.68 0.24
1 39 0.5 0.14
1 40 0.67 0.2
1 41 0.48 0.31
1 42 0.31 0.26
1 43 0.47 0.18
1 44 0.62 0.2
1 45 0.4 0.18
1 46 0.38 0.21
1 47 0.47 0.23
1 48 0.64 0.21
1 49 0.74 0.28
2 3 0.58 0.24
2 4 0.73 0.32
2 5 0.26 0.18
2 6 0.82 0.24
2 7 0.55 0.3
2 8 0.63 0.25
2 9 0.65 0.23
2 10 0.5 0.23
2 11 0.55 0.08
2 12 0.54 0.19
2 13 0.34 0.23
2 14 0.68 0.15
2 15 0.73 0.22
2 16 0.65 0.28
2 17 0.46 0.28
2 18 0.57 0.26
2 19 0.38 0.19
2 20 0.56 0.32
2 21 0.3 0.08
2 22 0.62 0.14
2 23 0.57 0.22
2 24 0.66 0.16
2 25 0.64 0.24
2 26 0.54 0.16
2 27 0.46 0.2
2 28 0.72 0.14
2 29 0.68 0.16
2 30 0.74 0.22
2 31 0.68 0.24
2 32 0.71 0.22
2 33 0.44 0.23
2 34 0.55 0.28
2 35 0.3 0.22
2 36 0.62 0.24
2 37 0.78 0.26
2 38 0.58 0.28
2 39 0.6 0.18
2 40 0.34 0.2
2 41 0.58 0.26
2 42 0.38 0.19
2 43 0.36 0.25
2 44 0.37 0.12
2 45 0.59 0.21
2 46 0.56 0.19
2 47 0.32 0.15
2 48 0.56 0.18
2 49 0.56 0.12
3 4 0.78 0.24
3 5 0.81 0.26
3 6 0.62 0.24
3 7 0.48 0.36
3 8 0.68 0.28
3 9 0.61 0.22
3 10 0.64 0.28
3 11 0.59 0.16
3 12 0.5 0.27
3 13 0.59 0.14
3 14 0.62 0.25
3 15 0.41 0.14
3 16 0.24 0.18
3 17 0.74 0.28
3 18 0.55 0.18
3 19 0.56 0.22
3 20 0.56 0.24
3 21 0.61 0.22
3 22 0.68 0.23
3 23 0.74 0.28
3 24 0.65 0.08
3 25 0.55 0.18
3 26 0.44 0.24
3 27 0.68 0.22
3 28 0.75 0.22
3 29 0.58 0.22
3 30 0.52 0.28
3 31 0.56 0.32
3 32 0.57 0.27
3 33 0.56 0.14
3 34 0.55 0.26
3 35 0.4 0.18
3 36 0.56 0.16
3 37 0.66 0.12
3 38 0.66 0.1
3 39 0.67 0.2
3 40 0.24 0.2
3 41 0.49 0.32
3 42 0.5 0.27
3 43 0.46 0.2
3 44 0.62 0.18
3 45 0.56 0.16
3 46 0.7 0.26
3 47 0.64 0.26
3 48 0.76 0.18
3 49 0.46 0.2
4 5 0.5 0.2
4 6 0.46 0.31
4 7 0.4 0.38
4 8 0.1 0.08
4 9 0.39 0.15
4 10 0.65 0.23
4 11 0.62 0.24
4 12 0.56 0.26
4 13 0.41 0.14
4 14 0.58 0.23
4 15 0.6 0.22
4 16 0.79 0.24
4 17 0.29 0.21
4 18 0.45 0.25
4 19 0.44 0.26
4 20 0.58 0.24
4 21 0.49 0.25
4 22 0.64 0.23
4 23 0.6 0.2
4 24 0.36 0.16
4 25 0.49 0.13
4 26 0.62 0.28
4 27 0.42 0.14
4 28 0.42 0.28
4 29 0.72 0.22
4 30 0.68 0.31
4 31 0.76 0.36
4 32 0.72 0.27
4 33 0.58 0.14
4 34 0.6 0.33
4 35 0.63 0.19
4 36 0.56 0.2
4 37 0.38 0.23
4 38 0.58 0.21
4 39 0.54 0.28
4 40 0.72 0.22
4 41 0.64 0.33
4 42 0.56 0.33
4 43 0.5 0.2
4 44 0.71 0.21
4 45 0.42 0.18
4 46 0.64 0.2
4 47 0.56 0.22
4 48 0.32 0.15
4 49 0.74 0.28
5 6 0.66 0.26
5 7 0.64 0.28
5 8 0.6 0.27
5 9 0.76 0.28
5 10 0.4 0.28
5 11 0.36 0.1
5 12 0.72 0.21
5 13 0.52 0.25
5 14 0.44 0.2
5 15 0.47 0.24
5 16 0.72 0.31
5 17 0.62 0.18
5 18 0.72 0.28
5 19 0.61 0.25
5 20 0.71 0.34
5 21 0.33 0.21
5 22 0.5 0.15
5 23 0.5 0.24
5 24 0.62 0.18
5 25 0.73 0.25
5 26 0.8 0.29
5 27 0.38 0.22
5 28 0.66 0.16
5 29 0.66 0.32
5 30 0.69 0.27
5 31 0.46 0.33
5 32 0.47 0.24
5 33 0.7 0.25
5 34 0.44 0.3
5 35 0.52 0.3
5 36 0.56 0.27
5 37 0.69 0.24
5 38 0.6 0.26
5 39 0.36 0.28
5 40 0.6 0.25
5 41 0.32 0.28
5 42 0.55 0.21
5 43 0.6 0.26
5 44 0.3 0.17
5 45 0.56 0.26
5 46 0.34 0.24
5 47 0.45 0.29
5 48 0.66 0.23
5 49 0.54 0.14
6 7 0.42 0.12
6 8 0.56 0.27
6 9 0.54 0.25
6 10 0.6 0.28
6 11 0.64 0.16
6 12 0.48 0.15
6 13 0.58 0.18
6 14 0.43 0.28
6 15 0.54 0.22
6 16 0.66 0.23
6 17 0.42 0.24
6 18 0.28 0.18
6 19 0.64 0.2
6 20 0.8 0.28
6 21 0.58 0.27
6 22 0.78 0.28
6 23 0.71 0.18
6 24 0.66 0.16
6 25 0.59 0.18
6 26 0.52 0.19
6 27 0.5 0.21
6 28 0.54 0.1
6 29 0.38 0.1
6 30 0.59 0.34
6 31 0.73 0.11
6 32 0.52 0.21
6 33 0.74 0.18
6 34 0.62 0.28
6 35 0.58 0.24
6 36 0.67 0.2
6 37 0.66 0.15
6 38 0.77 0.14
6 39 0.58 0.23
6 40 0.62 0.26
6 41 0.59 0.16
6 42 0.52 0.27
6 43 0.56 0.24
6 44 0.74 0.26
6 45 0.71 0.24
6 46 0.62 0.24
6 47 0.72 0.16
6 48 0.52 0.22
6 49 0.76 0.2
7 8 0.3 0.3
7 9 0.64 0.32
7 10 0.48 0.3
7 11 0.67 0.28
7 12 0.57 0.27
7 13 0.49 0.26
7 14 0.36 0.24
7 15 0.56 0.34
7 16 0.57 0.25
7 17 0.46 0.36
7 18 0.46 0.3
7 19 0.5 0.32
7 20 0.59 0.36
7 21 0.32 0.22
7 22 0.5 0.28
7 23 0.39 0.3
7 24 0.69 0.28
7 25 0.62 0.29
7 26 0.61 0.23
7 27 0.62 0.3
7 28 0.52 0.22
7 29 0.67 0.22
7 30 0.51 0.36
7 31 0.5 0.23
7 32 0.79 0.33
7 33 0.66 0.26
7 34 0.2 0.16
7 35 0.59 0.23
7 36 0.25 0.21
7 37 0.55 0.27
7 38 0.55 0.26
7 39 0.66 0.28
7 40 0.51 0.34
7 41 0.64 0.21
7 42 0.44 0.38
7 43 0.53 0.32
7 44 0.55 0.26
7 45 0.52 0.26
7 46 0.51 0.28
7 47 0.4 0.28
7 48 0.64 0.29
7 49 0.6 0.32
8 9 0.38 0.23
8 10 0.7 0.3
8 11 0.66 0.17
8 12 0.66 0.28
8 13 0.51 0.22
8 14 0.66 0.29
8 15 0.56 0.26
8 16 0.7 0.28
8 17 0.19 0.13
8 18 0.55 0.29
8 19 0.54 0.27
8 20 0.62 0.32
8 21 0.39 0.32
8 22 0.64 0.28
8 23 0.5 0.18
8 24 0.46 0.2
8 25 0.39 0.21
8 26 0.72 0.31
8 27 0.32 0.06
8 28 0.52 0.23
8 29 0.69 0.17
8 30 0.6 0.23
8 31 0.73 0.3
8 32 0.7 0.19
8 33 0.66 0.22
8 34 0.5 0.28
8 35 0.53 0.27
8 36 0.55 0.28
8 37 0.48 0.27
8 38 0.56 0.29
8 39 0.64 0.35
8 40 0.78 0.3
8 41 0.54 0.25
8 42 0.46 0.28
8 43 0.56 0.21
8 44 0.7 0.28
8 45 0.33 0.26
8 46 0.64 0.25
8 47 0.56 0.23
8 48 0.42 0.23
8 49 0.67 0.21
9 10 0.7 0.16
9 11 0.51 0.28
9 12 0.54 0.23
9 13 0.48 0.16
9 14 0.66 0.08
9 15 0.54 0.29
9 16 0.7 0.21
9 17 0.19 0.15
9 18 0.62 0.26
9 19 0.56 0.16
9 20 0.69 0.26
9 21 0.63 0.15
9 22 0.75 0.21
9 23 0.62 0.19
9 24 0.7 0.25
9 25 0.39 0.2
9 26 0.52 0.23
9 27 0.5 0.2
9 28 0.69 0.27
9 29 0.6 0.18
9 30 0.6 0.25
9 31 0.42 0.22
9 32 0.56 0.2
9 33 0.31 0.16
9 34 0.76 0.24
9 35 0.53 0.2
9 36 0.42 0.18
9 37 0.47 0.1
9 38 0.6 0.12
9 39 0.6 0.18
9 40 0.57 0.24
9 41 0.57 0.27
9 42 0.66 0.22
9 43 0.56 0.22
9 44 0.46 0.19
9 45 0.34 0.2
9 46 0.64 0.12
9 47 0.44 0.12
9 48 0.68 0.23
9 49 0.35 0.24
10 11 0.46 0.24
10 12 0.44 0.25
10 13 0.56 0.24
10 14 0.24 0.08
10 15 0.5 0.31
10 16 0.64 0.22
10 17 0.51 0.26
10 18 0.4 0.35
10 19 0.5 0.29
10 20 0.66 0.34
10 21 0.7 0.15
10 22 0.38 0.2
10 23 0.54 0.12
10 24 0.56 0.25
10 25 0.33 0.1
10 26 0.66 0.23
10 27 0.48 0.24
10 28 0.42 0.2
10 29 0.61 0.24
10 30 0.5 0.18
10 31 0.74 0.31
10 32 0.56 0.2
10 33 0.58 0.24
10 34 0.61 0.18
10 35 0.52 0.13
10 36 0.62 0.18
10 37 0.57 0.2
10 38 0.61 0.18
10 39 0.56 0.18
10 40 0.48 0.27
10 41 0.6 0.33
10 42 0.63 0.22
10 43 0.7 0.29
10 44 0.55 0.19
10 45 0.52 0.28
10 46 0.06 0.05
10 47 0.55 0.28
10 48 0.7 0.25
10 49 0.7 0.24
11 12 0.7 0.11
11 13 0.7 0.21
11 14 0.7 0.2
11 15 0.32 0.14
11 16 0.61 0.26
11 17 0.69 0.2
11 18 0.66 0.18
11 19 0.57 0.18
11 20 0.58 0.24
11 21 0.68 0.16
11 22 0.43 0.22
11 23 0.68 0.14
11 24 0.26 0.08
11 25 0.77 0.23
11 26 0.55 0.24
11 27 0.62 0.12
11 28 0.45 0.06
11 29 0.69 0.23
11 30 0.66 0.28
11 31 0.73 0.27
11 32 0.5 0.26
11 33 0.48 0.21
11 34 0.62 0.22
11 35 0.6 0.27
11 36 0.42 0.27
11 37 0.72 0.24
11 38 0.7 0.22
11 39 0.58 0.26
11 40 0.35 0.22
11 41 0.39 0.29
11 42 0.62 0.11
11 43 0.32 0.24
11 44 0.62 0.18
11 45 0.62 0.16
11 46 0.52 0.19
11 47 0.48 0.22
11 48 0.72 0.19
11 49 0.57 0.04
12 13 0.66 0.25
12 14 0.68 0.24
12 15 0.47 0.25
12 16 0.4 0.28
12 17 0.55 0.29
12 18 0.48 0.29
12 19 0.54 0.15
12 20 0.73 0.23
12 21 0.58 0.22
12 22 0.76 0.25
12 23 0.6 0.13
12 24 0.64 0.19
12 25 0.71 0.22
12 26 0.68 0.3
12 27 0.52 0.23
12 28 0.52 0.05
12 29 0.54 0.17
12 30 0.47 0.28
12 31 0.4 0.25
12 32 0.67 0.31
12 33 0.78 0.25
12 34 0.37 0.19
12 35 0.57 0.22
12 36 0.68 0.28
12 37 0.64 0.3
12 38 0.48 0.29
12 39 0.7 0.29
12 40 0.68 0.26
12 41 0.81 0.26
12 42 0.62 0.22
12 43 0.54 0.21
12 44 0.43 0.18
12 45 0.4 0.15
12 46 0.38 0.2
12 47 0.28 0.11
12 48 0.52 0.12
12 49 0.78 0.15
13 14 0.46 0.23
13 15 0.8 0.24
13 16 0.78 0.1
13 17 0.67 0.14
13 18 0.59 0.11
13 19 0.68 0.18
13 20 0.7 0.1
13 21 0.64 0.16
13 22 0.51 0.1
13 23 0.76 0.2
13 24 0.54 0.21
13 25 0.64 0.18
13 26 0.7 0.14
13 27 0.72 0.19
13 28 0.66 0.27
13 29 0.58 0.08
13 30 0.64 0.24
13 31 0.58 0.22
13 32 0.48 0.19
13 33 0.74 0.0
13 34 0.56 0.22
13 35 0.64 0.12
13 36 0.52 0.06
13 37 0.56 0.14
13 38 0.36 0.12
13 39 0.62 0.14
13 40 0.61 0.08
13 41 0.56 0.2
13 42 0.72 0.24
13 43 0.68 0.06
13 44 0.71 0.16
13 45 0.56 0.13
13 46 0.5 0.19
13 47 0.62 0.14
13 48 0.44 0.16
13 49 0.49 0.25
14 15 0.54 0.23
14 16 0.43 0.21
14 17 0.74 0.18
14 18 0.64 0.27
14 19 0.74 0.21
14 20 0.62 0.26
14 21 0.46 0.07
14 22 0.62 0.13
14 23 0.33 0.11
14 24 0.48 0.17
14 25 0.57 0.18
14 26 0.58 0.15
14 27 0.69 0.23
14 28 0.64 0.19
14 29 0.48 0.23
14 30 0.57 0.21
14 31 0.69 0.23
14 32 0.68 0.12
14 33 0.7 0.23
14 34 0.54 0.17
14 35 0.52 0.12
14 36 0.61 0.17
14 37 0.65 0.18
14 38 0.57 0.2
14 39 0.32 0.17
14 40 0.51 0.19
14 41 0.48 0.25
14 42 0.66 0.14
14 43 0.61 0.26
14 44 0.31 0.11
14 45 0.56 0.2
14 46 0.3 0.04
14 47 0.46 0.2
14 48 0.7 0.17
14 49 0.5 0.16
15 16 0.65 0.32
15 17 0.65 0.3
15 18 0.72 0.16
15 19 0.62 0.2
15 20 0.7 0.14
15 21 0.69 0.2
15 22 0.44 0.15
15 23 0.36 0.26
15 24 0.4 0.06
15 25 0.45 0.25
15 26 0.6 0.28
15 27 0.72 0.2
15 28 0.66 0.2
15 29 0.59 0.23
15 30 0.72 0.26
15 31 0.63 0.27
15 32 0.7 0.24
15 33 0.42 0.24
15 34 0.36 0.3
15 35 0.62 0.31
15 36 0.46 0.3
15 37 0.59 0.26
15 38 0.73 0.24
15 39 0.26 0.26
15 40 0.65 0.24
15 41 0.4 0.28
15 42 0.57 0.25
15 43 0.64 0.27
15 44 0.56 0.16
15 45 0.53 0.14
15 46 0.44 0.27
15 47 0.62 0.17
15 48 0.72 0.17
15 49 0.76 0.18
16 17 0.51 0.15
16 18 0.46 0.21
16 19 0.58 0.16
16 20 0.55 0.2
16 21 0.79 0.2
16 22 0.44 0.2
16 23 0.58 0.24
16 24 0.59 0.26
16 25 0.31 0.16
16 26 0.65 0.12
16 27 0.64 0.29
16 28 0.51 0.3
16 29 0.68 0.18
16 30 0.58 0.22
16 31 0.48 0.2
16 32 0.58 0.14
16 33 0.52 0.1
16 34 0.77 0.25
16 35 0.5 0.1
16 36 0.32 0.04
16 37 0.42 0.11
16 38 0.42 0.09
16 39 0.5 0.19
16 40 0.48 0.18
16 41 0.58 0.25
16 42 0.58 0.23
16 43 0.29 0.07
16 44 0.52 0.24
16 45 0.63 0.23
16 46 0.62 0.17
16 47 0.4 0.17
16 48 0.55 0.26
16 49 0.54 0.22
17 18 0.56 0.16
17 19 0.67 0.22
17 20 0.5 0.24
17 21 0.56 0.21
17 22 0.56 0.15
17 23 0.62 0.29
17 24 0.52 0.25
17 25 0.2 0.2
17 26 0.56 0.27
17 27 0.51 0.19
17 28 0.7 0.26
17 29 0.68 0.2
17 30 0.41 0.1
17 31 0.54 0.27
17 32 0.51 0.06
17 33 0.48 0.14
17 34 0.61 0.35
17 35 0.34 0.22
17 36 0.44 0.19
17 37 0.63 0.25
17 38 0.48 0.24
17 39 0.56 0.28
17 40 0.59 0.22
17 41 0.38 0.22
17 42 0.61 0.24
17 43 0.37 0.08
17 44 0.65 0.2
17 45 0.46 0.26
17 46 0.45 0.22
17 47 0.63 0.18
17 48 0.54 0.26
17 49 0.54 0.16
18 19 0.46 0.24
18 20 0.52 0.21
18 21 0.58 0.24
18 22 0.58 0.21
18 23 0.43 0.3
18 24 0.49 0.1
18 25 0.73 0.29
18 26 0.7 0.2
18 27 0.44 0.24
18 28 0.82 0.24
18 29 0.66 0.19
18 30 0.54 0.26
18 31 0.7 0.24
18 32 0.72 0.22
18 33 0.73 0.11
18 34 0.62 0.33
18 35 0.85 0.23
18 36 0.56 0.17
18 37 0.38 0.25
18 38 0.58 0.23
18 39 0.5 0.25
18 40 0.56 0.19
18 41 0.54 0.2
18 42 0.36 0.28
18 43 0.34 0.16
18 44 0.63 0.2
18 45 0.44 0.18
18 46 0.46 0.3
18 47 0.6 0.25
18 48 0.72 0.21
18 49 0.78 0.22
19 20 0.56 0.28
19 21 0.48 0.16
19 22 0.28 0.1
19 23 0.79 0.22
19 24 0.6 0.14
19 25 0.49 0.2
19 26 0.5 0.16
19 27 0.58 0.21
19 28 0.42 0.2
19 29 0.64 0.1
19 30 0.74 0.28
19 31 0.8 0.16
19 32 0.68 0.19
19 33 0.63 0.18
19 34 0.7 0.34
19 35 0.68 0.26
19 36 0.54 0.2
19 37 0.54 0.22
19 38 0.74 0.24
19 39 0.49 0.26
19 40 0.52 0.21
19 41 0.46 0.11
19 42 0.57 0.07
19 43 0.3 0.14
19 44 0.6 0.18
19 45 0.64 0.19
19 46 0.54 0.25
19 47 0.52 0.04
19 48 0.3 0.16
19 49 0.4 0.22
20 21 0.7 0.24
20 22 0.77 0.2
20 23 0.34 0.26
20 24 0.5 0.2
20 25 0.53 0.28
20 26 0.5 0.19
20 27 0.67 0.29
20 28 0.73 0.18
20 29 0.58 0.18
20 30 0.26 0.22
20 31 0.68 0.27
20 32 0.62 0.29
20 33 0.57 0.1
20 34 0.46 0.32
20 35 0.38 0.22
20 36 0.34 0.16
20 37 0.32 0.24
20 38 0.46 0.22
20 39 0.65 0.24
20 40 0.48 0.18
20 41 0.86 0.3
20 42 0.72 0.34
20 43 0.26 0.16
20 44 0.41 0.2
20 45 0.5 0.17
20 46 0.6 0.29
20 47 0.5 0.24
20 48 0.39 0.14
20 49 0.67 0.28
21 22 0.58 0.06
21 23 0.62 0.14
21 24 0.48 0.14
21 25 0.73 0.16
21 26 0.61 0.08
21 27 0.38 0.26
21 28 0.63 0.22
21 29 0.6 0.22
21 30 0.44 0.14
21 31 0.38 0.16
21 32 0.76 0.15
21 33 0.46 0.16
21 34 0.51 0.24
21 35 0.42 0.19
21 36 0.48 0.16
21 37 0.51 0.18
21 38 0.65 0.2
21 39 0.52 0.1
21 40 0.5 0.12
21 41 0.4 0.18
21 42 0.34 0.21
21 43 0.66 0.22
21 44 0.42 0.04
21 45 0.72 0.13
21 46 0.67 0.11
21 47 0.39 0.18
21 48 0.52 0.1
21 49 0.28 0.14
22 23 0.7 0.17
22 24 0.69 0.2
22 25 0.71 0.1
22 26 0.53 0.14
22 27 0.66 0.26
22 28 0.7 0.25
22 29 0.58 0.18
22 30 0.53 0.2
22 31 0.56 0.22
22 32 0.58 0.09
22 33 0.71 0.1
22 34 0.65 0.26
22 35 0.48 0.16
22 36 0.75 0.16
22 37 0.65 0.2
22 38 0.77 0.18
22 39 0.48 0.16
22 40 0.68 0.18
22 41 0.74 0.21
22 42 0.83 0.17
22 43 0.52 0.16
22 44 0.56 0.1
22 45 0.72 0.19
22 46 0.44 0.17
22 47 0.6 0.14
22 48 0.58 0.16
22 49 0.58 0.2
23 24 0.7 0.2
23 25 0.42 0.21
23 26 0.3 0.22
23 27 0.36 0.12
23 28 0.39 0.08
23 29 0.38 0.12
23 30 0.54 0.2
23 31 0.62 0.25
23 32 0.67 0.23
23 33 0.37 0.2
23 34 0.3 0.2
23 35 0.68 0.15
23 36 0.64 0.2
23 37 0.56 0.24
23 38 0.61 0.26
23 39 0.62 0.24
23 40 0.5 0.18
23 41 0.73 0.24
23 42 0.54 0.25
23 43 0.5 0.26
23 44 0.2 0.1
23 45 0.6 0.19
23 46 0.6 0.07
23 47 0.35 0.18
23 48 0.56 0.16
23 49 0.68 0.18
24 25 0.72 0.26
24 26 0.4 0.22
24 27 0.68 0.14
24 28 0.46 0.14
24 29 0.54 0.24
24 30 0.64 0.2
24 31 0.66 0.27
24 32 0.36 0.19
24 33 0.54 0.21
24 34 0.49 0.3
24 35 0.52 0.26
24 36 0.51 0.24
24 37 0.59 0.2
24 38 0.44 0.18
24 39 0.66 0.22
24 40 0.46 0.18
24 41 0.5 0.24
24 42 0.7 0.19
24 43 0.3 0.26
24 44 0.55 0.1
24 45 0.36 0.08
24 46 0.5 0.21
24 47 0.52 0.18
24 48 0.61 0.11
24 49 0.68 0.12
25 26 0.72 0.17
25 27 0.71 0.27
25 28 0.75 0.17
25 29 0.8 0.23
25 30 0.61 0.28
25 31 0.64 0.25
25 32 0.7 0.19
25 33 0.65 0.18
25 34 0.72 0.24
25 35 0.34 0.06
25 36 0.58 0.12
25 37 0.43 0.1
25 38 0.28 0.08
25 39 0.5 0.18
25 40 0.54 0.25
25 41 0.58 0.3
25 42 0.56 0.25
25 43 0.57 0.22
25 44 0.62 0.2
25 45 0.43 0.29
25 46 0.39 0.14
25 47 0.54 0.24
25 48 0.7 0.26
25 49 0.56 0.26
26 27 0.51 0.25
26 28 0.42 0.29
26 29 0.14 0.14
26 30 0.24 0.2
26 31 0.58 0.08
26 32 0.53 0.21
26 33 0.55 0.14
26 34 0.51 0.3
26 35 0.42 0.11
26 36 0.36 0.08
26 37 0.62 0.16
26 38 0.66 0.14
26 39 0.6 0.18
26 40 0.2 0.12
26 41 0.7 0.13
26 42 0.64 0.23
26 43 0.36 0.19
26 44 0.5 0.12
26 45 0.59 0.21
26 46 0.6 0.19
26 47 0.58 0.2
26 48 0.46 0.18
26 49 0.42 0.22
27 28 0.65 0.18
27 29 0.37 0.11
27 30 0.68 0.29
27 31 0.67 0.31
27 32 0.48 0.25
27 33 0.66 0.19
27 34 0.66 0.32
27 35 0.71 0.27
27 36 0.64 0.25
27 37 0.7 0.24
27 38 0.5 0.26
27 39 0.66 0.32
27 40 0.7 0.27
27 41 0.5 0.31
27 42 0.58 0.23
27 43 0.48 0.25
27 44 0.39 0.22
27 45 0.46 0.22
27 46 0.54 0.19
27 47 0.24 0.17
27 48 0.28 0.24
27 49 0.66 0.16
28 29 0.4 0.2
28 30 0.47 0.28
28 31 0.4 0.21
28 32 0.8 0.31
28 33 0.4 0.27
28 34 0.69 0.24
28 35 0.66 0.23
28 36 0.64 0.28
28 37 0.8 0.25
28 38 0.6 0.24
28 39 0.76 0.32
28 40 0.61 0.26
28 41 0.81 0.26
28 42 0.58 0.17
28 43 0.72 0.26
28 44 0.56 0.18
28 45 0.48 0.2
28 46 0.36 0.15
28 47 0.41 0.16
28 48 0.65 0.17
28 49 0.78 0.1
29 30 0.38 0.3
29 31 0.72 0.21
29 32 0.4 0.14
29 33 0.42 0.08
29 34 0.65 0.27
29 35 0.5 0.2
29 36 0.42 0.14
29 37 0.48 0.13
29 38 0.68 0.15
29 39 0.74 0.21
29 40 0.34 0.16
29 41 0.73 0.21
29 42 0.5 0.17
29 43 0.5 0.14
29 44 0.42 0.2
29 45 0.73 0.21
29 46 0.67 0.19
29 47 0.57 0.06
29 48 0.6 0.18
29 49 0.38 0.27
30 31 0.66 0.28
30 32 0.77 0.16
30 33 0.31 0.24
30 34 0.71 0.36
30 35 0.62 0.24
30 36 0.26 0.18
30 37 0.48 0.26
30 38 0.56 0.24
30 39 0.59 0.24
30 40 0.44 0.18
30 41 0.6 0.24
30 42 0.68 0.29
30 43 0.52 0.18
30 44 0.57 0.1
30 45 0.69 0.19
30 46 0.56 0.23
30 47 0.66 0.24
30 48 0.5 0.16
30 49 0.41 0.26
31 32 0.62 0.29
31 33 0.73 0.22
31 34 0.54 0.3
31 35 0.61 0.19
31 36 0.75 0.16
31 37 0.5 0.24
31 38 0.69 0.22
31 39 0.37 0.26
31 40 0.78 0.2
31 41 0.45 0.05
31 42 0.64 0.23
31 43 0.7 0.27
31 44 0.52 0.19
31 45 0.69 0.28
31 46 0.76 0.27
31 47 0.43 0.2
31 48 0.67 0.25
31 49 0.66 0.3
32 33 0.82 0.19
32 34 0.59 0.29
32 35 0.56 0.16
32 36 0.72 0.18
32 37 0.68 0.25
32 38 0.48 0.23
32 39 0.44 0.22
32 40 0.6 0.27
32 41 0.56 0.28
32 42 0.52 0.26
32 43 0.38 0.14
32 44 0.54 0.19
32 45 0.72 0.27
32 46 0.56 0.16
32 47 0.39 0.2
32 48 0.59 0.25
32 49 0.78 0.22
33 34 0.67 0.22
33 35 0.31 0.12
33 36 0.56 0.06
33 37 0.58 0.14
33 38 0.38 0.12
33 39 0.68 0.14
33 40 0.66 0.08
33 41 0.64 0.2
33 42 0.54 0.24
33 43 0.5 0.06
33 44 0.48 0.16
33 45 0.58 0.13
33 46 0.52 0.19
33 47 0.56 0.14
33 48 0.77 0.16
33 49 0.63 0.25
34 35 0.58 0.21
34 36 0.45 0.22
34 37 0.5 0.14
34 38 0.54 0.16
34 39 0.62 0.22
34 40 0.31 0.28
34 41 0.44 0.35
34 42 0.54 0.29
34 43 0.53 0.28
34 44 0.5 0.28
34 45 0.56 0.34
34 46 0.67 0.13
34 47 0.54 0.3
34 48 0.76 0.31
34 49 0.53 0.22
35 36 0.5 0.06
35 37 0.5 0.12
35 38 0.62 0.12
35 39 0.83 0.2
35 40 0.62 0.2
35 41 0.58 0.24
35 42 0.6 0.26
35 43 0.64 0.17
35 44 0.67 0.23
35 45 0.61 0.25
35 46 0.58 0.08
35 47 0.52 0.26
35 48 0.48 0.28
35 49 0.56 0.27
36 37 0.5 0.08
36 38 0.3 0.06
36 39 0.68 0.16
36 40 0.56 0.14
36 41 0.76 0.21
36 42 0.53 0.23
36 43 0.49 0.11
36 44 0.71 0.2
36 45 0.76 0.19
36 46 0.56 0.13
36 47 0.56 0.2
36 48 0.58 0.22
36 49 0.51 0.24
37 38 0.2 0.02
37 39 0.33 0.08
37 40 0.8 0.22
37 41 0.6 0.29
37 42 0.66 0.15
37 43 0.58 0.18
37 44 0.56 0.18
37 45 0.54 0.2
37 46 0.51 0.17
37 47 0.46 0.19
37 48 0.45 0.23
37 49 0.6 0.2
38 39 0.53 0.1
38 40 0.64 0.2
38 41 0.68 0.27
38 42 0.56 0.17
38 43 0.71 0.16
38 44 0.41 0.2
38 45 0.71 0.22
38 46 0.67 0.19
38 47 0.26 0.21
38 48 0.46 0.25
38 49 0.42 0.18
39 40 0.58 0.22
39 41 0.42 0.26
39 42 0.65 0.23
39 43 0.69 0.2
39 44 0.57 0.14
39 45 0.35 0.14
39 46 0.62 0.21
39 47 0.42 0.24
39 48 0.66 0.17
39 49 0.8 0.24
40 41 0.73 0.22
40 42 0.55 0.27
40 43 0.22 0.14
40 44 0.38 0.08
40 45 0.56 0.17
40 46 0.54 0.23
40 47 0.53 0.22
40 48 0.62 0.14
40 49 0.22 0.18
41 42 0.23 0.18
41 43 0.7 0.25
41 44 0.56 0.14
41 45 0.62 0.23
41 46 0.54 0.29
41 47 0.57 0.15
41 48 0.75 0.2
41 49 0.68 0.32
42 43 0.66 0.21
42 44 0.36 0.19
42 45 0.71 0.26
42 46 0.69 0.18
42 47 0.34 0.11
42 48 0.52 0.23
42 49 0.62 0.15
43 44 0.3 0.22
43 45 0.34 0.18
43 46 0.76 0.24
43 47 0.45 0.1
43 48 0.58 0.21
43 49 0.44 0.24
44 45 0.64 0.09
44 46 0.52 0.15
44 47 0.15 0.14
44 48 0.39 0.06
44 49 0.48 0.18
45 46 0.58 0.24
45 47 0.68 0.15
45 48 0.47 0.03
45 49 0.46 0.2
46 47 0.49 0.24
46 48 0.7 0.21
46 49 0.66 0.19
47 48 0.24 0.12
47 49 0.63 0.26
48 49 0.56 0.23
